# Solution for model PD-Stages
# Objective value = 2.3656491455165607e+01
zigjg[101,102,8] 1
zigjg[101,203,8] 0
zigjg[101,303,8] 0
zigjg[101,304,8] 0
zigjg[101,405,8] 0
zigjg[101,505,8] 0
zigjg[101,506,8] 0
zigjg[101,607,8] 0
zigjg[101,707,8] 0
zigjg[101,708,8] 0
zigjg[101,809,8] 0
zigjg[101,909,8] 0
zigjg[102,101,8] 0
zigjg[102,203,8] 0
zigjg[102,303,8] 0
zigjg[102,304,8] 0
zigjg[102,405,8] 0
zigjg[102,505,8] 0
zigjg[102,506,8] 1
zigjg[102,607,8] 0
zigjg[102,707,8] 0
zigjg[102,708,8] 0
zigjg[102,809,8] 0
zigjg[102,909,8] 0
zigjg[203,101,8] 0
zigjg[203,102,8] 0
zigjg[203,303,8] 0
zigjg[203,304,8] 0
zigjg[203,405,8] 1
zigjg[203,505,8] 0
zigjg[203,506,8] 0
zigjg[203,607,8] 0
zigjg[203,707,8] 0
zigjg[203,708,8] 0
zigjg[203,809,8] 0
zigjg[203,909,8] 0
zigjg[303,101,8] 0
zigjg[303,102,8] 0
zigjg[303,203,8] 1
zigjg[303,304,8] 0
zigjg[303,405,8] 0
zigjg[303,505,8] 0
zigjg[303,506,8] 0
zigjg[303,607,8] 0
zigjg[303,707,8] 0
zigjg[303,708,8] 0
zigjg[303,809,8] 0
zigjg[303,909,8] 0
zigjg[304,101,8] 0
zigjg[304,102,8] 0
zigjg[304,203,8] 0
zigjg[304,303,8] 1
zigjg[304,405,8] 0
zigjg[304,505,8] 0
zigjg[304,506,8] 0
zigjg[304,607,8] 0
zigjg[304,707,8] 0
zigjg[304,708,8] 0
zigjg[304,809,8] 0
zigjg[304,909,8] 0
zigjg[405,101,8] 0
zigjg[405,102,8] 0
zigjg[405,203,8] 0
zigjg[405,303,8] 0
zigjg[405,304,8] 0
zigjg[405,505,8] 1
zigjg[405,506,8] 0
zigjg[405,607,8] 0
zigjg[405,707,8] 0
zigjg[405,708,8] 0
zigjg[405,809,8] 0
zigjg[405,909,8] 0
zigjg[505,101,8] 0
zigjg[505,102,8] 0
zigjg[505,203,8] 0
zigjg[505,303,8] 0
zigjg[505,304,8] 0
zigjg[505,405,8] 0
zigjg[505,506,8] 0
zigjg[505,607,8] 0
zigjg[505,707,8] 0
zigjg[505,708,8] 0
zigjg[505,809,8] 0
zigjg[505,909,8] 1
zigjg[506,101,8] 0
zigjg[506,102,8] 0
zigjg[506,203,8] 0
zigjg[506,303,8] 0
zigjg[506,304,8] 0
zigjg[506,405,8] 0
zigjg[506,505,8] 0
zigjg[506,607,8] 0
zigjg[506,707,8] 0
zigjg[506,708,8] 1
zigjg[506,809,8] 0
zigjg[506,909,8] 0
zigjg[607,101,8] 0
zigjg[607,102,8] 0
zigjg[607,203,8] 0
zigjg[607,303,8] 0
zigjg[607,304,8] 1
zigjg[607,405,8] 0
zigjg[607,505,8] 0
zigjg[607,506,8] 0
zigjg[607,707,8] 0
zigjg[607,708,8] 0
zigjg[607,809,8] 0
zigjg[607,909,8] 0
zigjg[707,101,8] 0
zigjg[707,102,8] 0
zigjg[707,203,8] 0
zigjg[707,303,8] 0
zigjg[707,304,8] 0
zigjg[707,405,8] 0
zigjg[707,505,8] 0
zigjg[707,506,8] 0
zigjg[707,607,8] 0
zigjg[707,708,8] 0
zigjg[707,809,8] 1
zigjg[707,909,8] 0
zigjg[708,101,8] 0
zigjg[708,102,8] 0
zigjg[708,203,8] 0
zigjg[708,303,8] 0
zigjg[708,304,8] 0
zigjg[708,405,8] 0
zigjg[708,505,8] 0
zigjg[708,506,8] 0
zigjg[708,607,8] 0
zigjg[708,707,8] 1
zigjg[708,809,8] 0
zigjg[708,909,8] 0
zigjg[809,101,8] 0
zigjg[809,102,8] 0
zigjg[809,203,8] 0
zigjg[809,303,8] 0
zigjg[809,304,8] 0
zigjg[809,405,8] 0
zigjg[809,505,8] 0
zigjg[809,506,8] 0
zigjg[809,607,8] 1
zigjg[809,707,8] 0
zigjg[809,708,8] 0
zigjg[809,909,8] 0
zigjg[909,101,8] 1
zigjg[909,102,8] 0
zigjg[909,203,8] 0
zigjg[909,303,8] 0
zigjg[909,304,8] 0
zigjg[909,405,8] 0
zigjg[909,505,8] 0
zigjg[909,506,8] 0
zigjg[909,607,8] 0
zigjg[909,707,8] 0
zigjg[909,708,8] 0
zigjg[909,809,8] 0
sig[101,8] 0
sig[102,8] 1
sig[203,8] 9
sig[303,8] 8
sig[304,8] 7
sig[405,8] 10
sig[505,8] 11
sig[506,8] 2
sig[607,8] 6
sig[707,8] 4
sig[708,8] 3
sig[809,8] 5
sig[909,8] 12
digjg[101,102,8] 8.6130806918419762e-08
digjg[101,203,8] 10000
digjg[101,303,8] 10000
digjg[101,304,8] 10000
digjg[101,405,8] 10000
digjg[101,505,8] 10000
digjg[101,506,8] 10000
digjg[101,607,8] 10000
digjg[101,707,8] 10000
digjg[101,708,8] 10000
digjg[101,809,8] 10000
digjg[101,909,8] 10000
digjg[102,101,8] 10000
digjg[102,203,8] 10000
digjg[102,303,8] 10000
digjg[102,304,8] 10000
digjg[102,405,8] 10000
digjg[102,505,8] 10000
digjg[102,506,8] 1.9467729302962331e+00
digjg[102,607,8] 10000
digjg[102,707,8] 10000
digjg[102,708,8] 10000
digjg[102,809,8] 10000
digjg[102,909,8] 10000
digjg[203,101,8] 10000
digjg[203,102,8] 10000
digjg[203,303,8] 10000
digjg[203,304,8] 10000
digjg[203,405,8] 2.7399003240697618e-06
digjg[203,505,8] 10000
digjg[203,506,8] 10000
digjg[203,607,8] 10000
digjg[203,707,8] 10000
digjg[203,708,8] 10000
digjg[203,809,8] 10000
digjg[203,909,8] 10000
digjg[303,101,8] 10000
digjg[303,102,8] 10000
digjg[303,203,8] 3.7907945987854349e-08
digjg[303,304,8] 10000
digjg[303,405,8] 10000
digjg[303,505,8] 10000
digjg[303,506,8] 10000
digjg[303,607,8] 10000
digjg[303,707,8] 10000
digjg[303,708,8] 10000
digjg[303,809,8] 10000
digjg[303,909,8] 10000
digjg[304,101,8] 10000
digjg[304,102,8] 10000
digjg[304,203,8] 10000
digjg[304,303,8] 6.9297115620833609e-06
digjg[304,405,8] 10000
digjg[304,505,8] 10000
digjg[304,506,8] 10000
digjg[304,607,8] 10000
digjg[304,707,8] 10000
digjg[304,708,8] 10000
digjg[304,809,8] 10000
digjg[304,909,8] 10000
digjg[405,101,8] 10000
digjg[405,102,8] 10000
digjg[405,203,8] 10000
digjg[405,303,8] 10000
digjg[405,304,8] 10000
digjg[405,505,8] 8.0393546936438842e-01
digjg[405,506,8] 10000
digjg[405,607,8] 10000
digjg[405,707,8] 10000
digjg[405,708,8] 10000
digjg[405,809,8] 10000
digjg[405,909,8] 10000
digjg[505,101,8] 10000
digjg[505,102,8] 10000
digjg[505,203,8] 10000
digjg[505,303,8] 10000
digjg[505,304,8] 10000
digjg[505,405,8] 10000
digjg[505,506,8] 10000
digjg[505,607,8] 10000
digjg[505,707,8] 10000
digjg[505,708,8] 10000
digjg[505,809,8] 10000
digjg[505,909,8] 2.6839695495537317e+00
digjg[506,101,8] 10000
digjg[506,102,8] 10000
digjg[506,203,8] 10000
digjg[506,303,8] 10000
digjg[506,304,8] 10000
digjg[506,405,8] 10000
digjg[506,505,8] 10000
digjg[506,607,8] 10000
digjg[506,707,8] 10000
digjg[506,708,8] 1.2348343536416998e-05
digjg[506,809,8] 10000
digjg[506,909,8] 10000
digjg[607,101,8] 10000
digjg[607,102,8] 10000
digjg[607,203,8] 10000
digjg[607,303,8] 10000
digjg[607,304,8] 4.2994506819115257e+00
digjg[607,405,8] 10000
digjg[607,505,8] 10000
digjg[607,506,8] 10000
digjg[607,707,8] 10000
digjg[607,708,8] 10000
digjg[607,809,8] 10000
digjg[607,909,8] 10000
digjg[707,101,8] 10000
digjg[707,102,8] 10000
digjg[707,203,8] 10000
digjg[707,303,8] 10000
digjg[707,304,8] 10000
digjg[707,405,8] 10000
digjg[707,505,8] 10000
digjg[707,506,8] 10000
digjg[707,607,8] 10000
digjg[707,708,8] 10000
digjg[707,809,8] 1.00039072448945e-07
digjg[707,909,8] 10000
digjg[708,101,8] 10000
digjg[708,102,8] 10000
digjg[708,203,8] 10000
digjg[708,303,8] 10000
digjg[708,304,8] 10000
digjg[708,405,8] 10000
digjg[708,505,8] 10000
digjg[708,506,8] 10000
digjg[708,607,8] 10000
digjg[708,707,8] 2.8492146415607636e-08
digjg[708,809,8] 10000
digjg[708,909,8] 10000
digjg[809,101,8] 10000
digjg[809,102,8] 10000
digjg[809,203,8] 10000
digjg[809,303,8] 10000
digjg[809,304,8] 10000
digjg[809,405,8] 10000
digjg[809,505,8] 10000
digjg[809,506,8] 10000
digjg[809,607,8] 8.5330293248210036e-08
digjg[809,707,8] 10000
digjg[809,708,8] 10000
digjg[809,909,8] 10000
digjg[909,101,8] 4.1207685061068853e+00
digjg[909,102,8] 10000
digjg[909,203,8] 10000
digjg[909,303,8] 10000
digjg[909,304,8] 10000
digjg[909,405,8] 10000
digjg[909,505,8] 10000
digjg[909,506,8] 10000
digjg[909,607,8] 10000
digjg[909,707,8] 10000
digjg[909,708,8] 10000
digjg[909,809,8] 10000
difigjg[101,102,8,0] 3.9378878320516194e-08
difigjg[101,102,8,1] 6.8954935046248356e-08
difigjg[101,203,8,0] 5.3791984199610451e+03
difigjg[101,203,8,1] 4.5011376609099834e+03
difigjg[101,303,8,0] 5.3807533435221230e+03
difigjg[101,303,8,1] 4.4772057058257951e+03
difigjg[101,304,8,0] 4.5678715941892033e+03
difigjg[101,304,8,1] 4.6791716646113809e+03
difigjg[101,405,8,0] 5.3888098250284638e+03
difigjg[101,405,8,1] 4.4912666810026085e+03
difigjg[101,505,8,0] 5.3422439326154490e+03
difigjg[101,505,8,1] 4445.49918324604
difigjg[101,506,8,0] 4.5702966140765366e+03
difigjg[101,506,8,1] 4.6827668966435613e+03
difigjg[101,607,8,0] 5.3880324980377327e+03
difigjg[101,607,8,1] 4.4878994136104466e+03
difigjg[101,707,8,0] 5337.58763437092
difigjg[101,707,8,1] 4.4415583980215388e+03
difigjg[101,708,8,0] 4.5740569601267116e+03
difigjg[101,708,8,1] 4.6281828804786810e+03
difigjg[101,809,8,0] 5.3923143769816434e+03
difigjg[101,809,8,1] 4.4893841457751050e+03
difigjg[101,909,8,0] 5.3121868713763806e+03
difigjg[101,909,8,1] 4.3652412096507378e+03
difigjg[102,101,8,0] 4.3645045495986969e+03
difigjg[102,101,8,1] 5.6111778524424462e+03
difigjg[102,203,8,0] 4.3903706294857548e+03
difigjg[102,203,8,1] 5603.77209494165
difigjg[102,303,8,0] 5.1982228868957982e+03
difigjg[102,303,8,1] 5.3963520604052437e+03
difigjg[102,304,8,0] 5.6120178089901510e+03
difigjg[102,304,8,1] 4.4708284961250711e+03
difigjg[102,405,8,0] 4.4865344539276430e+03
difigjg[102,405,8,1] 5.6053582355617536e+03
difigjg[102,505,8,0] 5.3397383172542968e+03
difigjg[102,505,8,1] 4444.15512552636
difigjg[102,506,8,0] 0.661580110906291
difigjg[102,506,8,1] 1.8309112717096721e+00
difigjg[102,607,8,0] 4692.24098623341
difigjg[102,607,8,1] 4.6700264963951713e+03
difigjg[102,707,8,0] 5341.38682990096
difigjg[102,707,8,1] 4.4405841795537826e+03
difigjg[102,708,8,0] 4.6683645923109052e+03
difigjg[102,708,8,1] 4.6271919591835667e+03
difigjg[102,809,8,0] 4.6833197304231826e+03
difigjg[102,809,8,1] 4.6789186831467869e+03
difigjg[102,909,8,0] 5.2994781889049218e+03
difigjg[102,909,8,1] 4337.37144996914
difigjg[203,101,8,0] 5378.29049284473
difigjg[203,101,8,1] 4.4988531802416055e+03
difigjg[203,102,8,0] 4.3757108795544009e+03
difigjg[203,102,8,1] 5592.11578320155
difigjg[203,303,8,0] 4.5990387610608395e+03
difigjg[203,303,8,1] 4.6731851122770986e+03
difigjg[203,304,8,0] 4.5996614191744911e+03
difigjg[203,304,8,1] 4.6697457285128476e+03
difigjg[203,405,8,0] 1.0304739110825070e-06
difigjg[203,405,8,1] 2.4564783710091345e-06
difigjg[203,505,8,0] 5.3329667870071089e+03
difigjg[203,505,8,1] 4.4417432899253663e+03
difigjg[203,506,8,0] 4.6049005354865358e+03
difigjg[203,506,8,1] 4.6643428365945083e+03
difigjg[203,607,8,0] 5.4303317697246475e+03
difigjg[203,607,8,1] 4.4836323416550740e+03
difigjg[203,707,8,0] 5.3251427686339111e+03
difigjg[203,707,8,1] 4.4333284281413326e+03
difigjg[203,708,8,0] 4610.09609567916
difigjg[203,708,8,1] 4.6165942921512669e+03
difigjg[203,809,8,0] 5.4229265219105118e+03
difigjg[203,809,8,1] 4.4736893867870185e+03
difigjg[203,909,8,0] 5.3036995029481786e+03
difigjg[203,909,8,1] 4.3243296852277463e+03
difigjg[303,101,8,0] 5.3875684095424931e+03
difigjg[303,101,8,1] 4.4856614555344231e+03
difigjg[303,102,8,0] 5.1976084225901222e+03
difigjg[303,102,8,1] 5.3969169806134933e+03
difigjg[303,203,8,0] 2.3240109124107013e-08
difigjg[303,203,8,1] 2.6201155641225630e-08
difigjg[303,304,8,0] 5.4133543255933328e+03
difigjg[303,304,8,1] 4.4909211432116617e+03
difigjg[303,405,8,0] 4.3828684445196532e+03
difigjg[303,405,8,1] 5.6151996367022448e+03
difigjg[303,505,8,0] 5.3453282376300940e+03
difigjg[303,505,8,1] 4.4492226287893955e+03
difigjg[303,506,8,0] 5409.63409432346
difigjg[303,506,8,1] 4.4952115271037846e+03
difigjg[303,607,8,0] 4.5676827031522971e+03
difigjg[303,607,8,1] 4.6842922145332559e+03
difigjg[303,707,8,0] 5.3403079898863243e+03
difigjg[303,707,8,1] 4.4444780113027773e+03
difigjg[303,708,8,0] 4.5727952492917029e+03
difigjg[303,708,8,1] 4628.90248872705
difigjg[303,809,8,0] 4.5772289278539256e+03
difigjg[303,809,8,1] 4.6861880688630463e+03
difigjg[303,909,8,0] 5.3100544674768043e+03
difigjg[303,909,8,1] 4.3631845142752945e+03
difigjg[304,101,8,0] 4.5485082546221165e+03
difigjg[304,101,8,1] 4686.19933584216
difigjg[304,102,8,0] 5.6062857551418874e+03
difigjg[304,102,8,1] 4.4878874773952839e+03
difigjg[304,203,8,0] 4.5924317529797363e+03
difigjg[304,203,8,1] 4.6791211979394866e+03
difigjg[304,303,8,0] 1.6422439129075547e-06
difigjg[304,303,8,1] 6.4866236527381813e-06
difigjg[304,405,8,0] 4.4792161875560787e+03
difigjg[304,405,8,1] 5.6076103745014361e+03
difigjg[304,505,8,0] 4.3513460693245934e+03
difigjg[304,505,8,1] 5.5873023671223282e+03
difigjg[304,506,8,0] 5.6062804699594863e+03
difigjg[304,506,8,1] 4.4749533001838581e+03
difigjg[304,607,8,0] 4.4788890183835065e+03
difigjg[304,607,8,1] 5607.99259206272
difigjg[304,707,8,0] 5340.66776908726
difigjg[304,707,8,1] 4439.67060558481
difigjg[304,708,8,0] 4676.746271452
difigjg[304,708,8,1] 4.6230620288144819e+03
difigjg[304,809,8,0] 4.6808793531090187e+03
difigjg[304,809,8,1] 4.6779500772624642e+03
difigjg[304,909,8,0] 5.3040845388616272e+03
difigjg[304,909,8,1] 4.3427453364569355e+03
difigjg[405,101,8,0] 5.3868209643675746e+03
difigjg[405,101,8,1] 4.4778080985499037e+03
difigjg[405,102,8,0] 4.4671428208470561e+03
difigjg[405,102,8,1] 5.6144764898708254e+03
difigjg[405,203,8,0] 5.4215475691151769e+03
difigjg[405,203,8,1] 4.4777913495530711e+03
difigjg[405,303,8,0] 4.3747432142785074e+03
difigjg[405,303,8,1] 5.6151299467106792e+03
difigjg[405,304,8,0] 4.4748096773654643e+03
difigjg[405,304,8,1] 5.6106599675424150e+03
difigjg[405,505,8,0] 0.00873330209422273
difigjg[405,505,8,1] 0.803887873433422
difigjg[405,506,8,0] 4.6720226985896970e+03
difigjg[405,506,8,1] 4.6888172131910578e+03
difigjg[405,607,8,0] 5.6082757528892926e+03
difigjg[405,607,8,1] 4.4833702943902890e+03
difigjg[405,707,8,0] 5.3433214362393137e+03
difigjg[405,707,8,1] 4.4490172788380378e+03
difigjg[405,708,8,0] 4.6653464615272624e+03
difigjg[405,708,8,1] 4.6276337930530308e+03
difigjg[405,809,8,0] 5.6101291871351250e+03
difigjg[405,809,8,1] 4.4752724210490687e+03
difigjg[405,909,8,0] 5.3006365955529891e+03
difigjg[405,909,8,1] 4.3511220788791661e+03
difigjg[505,101,8,0] 5351.78212434958
difigjg[505,101,8,1] 4.4507238411144954e+03
difigjg[505,102,8,0] 5.3547561072894305e+03
difigjg[505,102,8,1] 4.4556480964860366e+03
difigjg[505,203,8,0] 5.3485414309820135e+03
difigjg[505,203,8,1] 4.4451382068193680e+03
difigjg[505,303,8,0] 5.3304136961581326e+03
difigjg[505,303,8,1] 4.4311800255563339e+03
difigjg[505,304,8,0] 4.3367793979602538e+03
difigjg[505,304,8,1] 5.6097094633625657e+03
difigjg[505,405,8,0] 5.3552989597687865e+03
difigjg[505,405,8,1] 4.4515022677674024e+03
difigjg[505,506,8,0] 4.5107376785005063e+03
difigjg[505,506,8,1] 4.6584371671782974e+03
difigjg[505,607,8,0] 5164.7944698796
difigjg[505,607,8,1] 5.3554393290293128e+03
difigjg[505,707,8,0] 5.3116297694987288e+03
difigjg[505,707,8,1] 4.4034432295337128e+03
difigjg[505,708,8,0] 4.5058936571729791e+03
difigjg[505,708,8,1] 4.5844175792780143e+03
difigjg[505,809,8,0] 5.3467994246884027e+03
difigjg[505,809,8,1] 4.4483632220393856e+03
difigjg[505,909,8,0] 3.6835005780912911e-01
difigjg[505,909,8,1] 2.6585729089731012e+00
difigjg[506,101,8,0] 4.5612008287724566e+03
difigjg[506,101,8,1] 4.6784027693206253e+03
difigjg[506,102,8,0] 5.6067523297322341e+03
difigjg[506,102,8,1] 4.4735190446066817e+03
difigjg[506,203,8,0] 4.6026645256030542e+03
difigjg[506,203,8,1] 4.6610231452240023e+03
difigjg[506,303,8,0] 5.4201148643508086e+03
difigjg[506,303,8,1] 4.4936588083533852e+03
difigjg[506,304,8,0] 5.6061171536652782e+03
difigjg[506,304,8,1] 4474.7226980181
difigjg[506,405,8,0] 4.6866961441065559e+03
difigjg[506,405,8,1] 4.6704807889441909e+03
difigjg[506,505,8,0] 4.5289066031831726e+03
difigjg[506,505,8,1] 4.6412006535570445e+03
difigjg[506,607,8,0] 4.4700038492850372e+03
difigjg[506,607,8,1] 5609.24584769166
difigjg[506,707,8,0] 5.1626045542379334e+03
difigjg[506,707,8,1] 5.3565328771188970e+03
difigjg[506,708,8,0] 7.6590484156630030e-06
difigjg[506,708,8,1] 9.6849424662726751e-06
difigjg[506,809,8,0] 4.4704517414068705e+03
difigjg[506,809,8,1] 5.6076671235508984e+03
difigjg[506,909,8,0] 5.3084746745907969e+03
difigjg[506,909,8,1] 4.3678347262079524e+03
difigjg[607,101,8,0] 5.3828450830822885e+03
difigjg[607,101,8,1] 4.4895756241319141e+03
difigjg[607,102,8,0] 4.6672994064351506e+03
difigjg[607,102,8,1] 4.6942215276530123e+03
difigjg[607,203,8,0] 5.4241176627746654e+03
difigjg[607,203,8,1] 4.4872217576033727e+03
difigjg[607,303,8,0] 4.5636279185776893e+03
difigjg[607,303,8,1] 4.6901003405550928e+03
difigjg[607,304,8,0] 3.9354690902544887e+00
difigjg[607,304,8,1] 1.7312882945233374e+00
difigjg[607,405,8,0] 5.6069178085256044e+03
difigjg[607,405,8,1] 4.4853751132543493e+03
difigjg[607,505,8,0] 5.1624945144607809e+03
difigjg[607,505,8,1] 5.3621101668365218e+03
difigjg[607,506,8,0] 4.4714445265937493e+03
difigjg[607,506,8,1] 5.6055833679209309e+03
difigjg[607,707,8,0] 4.5451461104103737e+03
difigjg[607,707,8,1] 4.6569133040094166e+03
difigjg[607,708,8,0] 4.6723784052284527e+03
difigjg[607,708,8,1] 4.6266713404728562e+03
difigjg[607,809,8,0] 5.6087140830205326e+03
difigjg[607,809,8,1] 4.4662099081900860e+03
difigjg[607,909,8,0] 5.3008433503383549e+03
difigjg[607,909,8,1] 4.3387176318803777e+03
difigjg[707,101,8,0] 5.3400537463959890e+03
difigjg[707,101,8,1] 4.4406691478711591e+03
difigjg[707,102,8,0] 5.3424949895768759e+03
difigjg[707,102,8,1] 4.4459016942825037e+03
difigjg[707,203,8,0] 5.3312616989215985e+03
difigjg[707,203,8,1] 4.4328840572299405e+03
difigjg[707,303,8,0] 5.3429392324298324e+03
difigjg[707,303,8,1] 4.4436807424989793e+03
difigjg[707,304,8,0] 5344.46181831944
difigjg[707,304,8,1] 4.4485589119212982e+03
difigjg[707,405,8,0] 5.3394047547153223e+03
difigjg[707,405,8,1] 4.4366168238710206e+03
difigjg[707,505,8,0] 5.3379716226481169e+03
difigjg[707,505,8,1] 4.4412638238683812e+03
difigjg[707,506,8,0] 5.1607019906774294e+03
difigjg[707,506,8,1] 5.3525918857168081e+03
difigjg[707,607,8,0] 4.5395155948586344e+03
difigjg[707,607,8,1] 4.6643416168092544e+03
difigjg[707,708,8,0] 4.4966344430578411e+03
difigjg[707,708,8,1] 4.5720208162353283e+03
difigjg[707,809,8,0] 5.7447843156391973e-08
difigjg[707,809,8,1] 7.6586754993567229e-08
difigjg[707,909,8,0] 5.2809988440982788e+03
difigjg[707,909,8,1] 4.3067960295714538e+03
difigjg[708,101,8,0] 4.5643132304111832e+03
difigjg[708,101,8,1] 4.6234442415583771e+03
difigjg[708,102,8,0] 4.6744862723258384e+03
difigjg[708,102,8,1] 4.6290859408550132e+03
difigjg[708,203,8,0] 4.6072119251424656e+03
difigjg[708,203,8,1] 4.6055341621847019e+03
difigjg[708,303,8,0] 4.5658656475725265e+03
difigjg[708,303,8,1] 4.6231477199168894e+03
difigjg[708,304,8,0] 4.6684752671453953e+03
difigjg[708,304,8,1] 4.6294440824257754e+03
difigjg[708,405,8,0] 4.6760985097630455e+03
difigjg[708,405,8,1] 4.6141260137248555e+03
difigjg[708,505,8,0] 4.5218111247230945e+03
difigjg[708,505,8,1] 4.5864606638522409e+03
difigjg[708,506,8,0] 4.6727584957958370e+03
difigjg[708,506,8,1] 4.6176034564423935e+03
difigjg[708,607,8,0] 4.6752107744645109e+03
difigjg[708,607,8,1] 4.6280509836533656e+03
difigjg[708,707,8,0] 1.8955577093691064e-08
difigjg[708,707,8,1] 1.8463632282624329e-08
difigjg[708,809,8,0] 4.4619994208816879e+03
difigjg[708,809,8,1] 5.5101341395016461e+03
difigjg[708,909,8,0] 5.3058988397428657e+03
difigjg[708,909,8,1] 4.3398908993155337e+03
difigjg[809,101,8,0] 5.3918988656423253e+03
difigjg[809,101,8,1] 4.4895714221307744e+03
difigjg[809,102,8,0] 4672.54188991605
difigjg[809,102,8,1] 4.6875364938473886e+03
difigjg[809,203,8,0] 5.4248316488128512e+03
difigjg[809,203,8,1] 4.4766311862487983e+03
difigjg[809,303,8,0] 4.5855105120920934e+03
difigjg[809,303,8,1] 4.6834007747795567e+03
difigjg[809,304,8,0] 4.6806591821682614e+03
difigjg[809,304,8,1] 4.6810095995110287e+03
difigjg[809,405,8,0] 5.6087680893926363e+03
difigjg[809,405,8,1] 4.4684539766210928e+03
difigjg[809,505,8,0] 5.3376999722022174e+03
difigjg[809,505,8,1] 4448.18897481809
difigjg[809,506,8,0] 4.4725585593340884e+03
difigjg[809,506,8,1] 5.6078103518000717e+03
difigjg[809,607,8,0] 6.5420634976802851e-08
difigjg[809,607,8,1] 4.5928108873816533e-08
difigjg[809,707,8,0] 4.3693804452234745e+03
difigjg[809,707,8,1] 5.5967906550814769e+03
difigjg[809,708,8,0] 4467.7059345344
difigjg[809,708,8,1] 5.5036505741786968e+03
difigjg[809,909,8,0] 5180.23649358392
difigjg[809,909,8,1] 5.3400506932962526e+03
difigjg[909,101,8,0] 1.0778227287412854e+00
difigjg[909,101,8,1] 3.9773145749668442e+00
difigjg[909,102,8,0] 5.3065284501690612e+03
difigjg[909,102,8,1] 4.3476900260419234e+03
difigjg[909,203,8,0] 5.3048980907427413e+03
difigjg[909,203,8,1] 4.3186958152112493e+03
difigjg[909,303,8,0] 5.2962761519255919e+03
difigjg[909,303,8,1] 4.3338720487783621e+03
difigjg[909,304,8,0] 5.3010475159209382e+03
difigjg[909,304,8,1] 4.3419957247665625e+03
difigjg[909,405,8,0] 5.3059588370154161e+03
difigjg[909,405,8,1] 4.3503471661209351e+03
difigjg[909,505,8,0] 5.3043871684153773e+03
difigjg[909,505,8,1] 4.3408297223171385e+03
difigjg[909,506,8,0] 5.2989027267497440e+03
difigjg[909,506,8,1] 4.3441377894254283e+03
difigjg[909,607,8,0] 5.3056842639733277e+03
difigjg[909,607,8,1] 4.3441019387229226e+03
difigjg[909,707,8,0] 5.2731875499133930e+03
difigjg[909,707,8,1] 4.2842329832546657e+03
difigjg[909,708,8,0] 5.2701143297639064e+03
difigjg[909,708,8,1] 4.2778927276189088e+03
difigjg[909,809,8,0] 5.1812814139527482e+03
difigjg[909,809,8,1] 5.3376495948056636e+03
pigjg[101,102,8] 8.6130806918419762e-08
pigjg[101,203,8] 0
pigjg[101,303,8] 0
pigjg[101,304,8] 0
pigjg[101,405,8] 0
pigjg[101,505,8] 0
pigjg[101,506,8] 0
pigjg[101,607,8] 0
pigjg[101,707,8] 0
pigjg[101,708,8] 0
pigjg[101,809,8] 0
pigjg[101,909,8] 0
pigjg[102,101,8] 0
pigjg[102,203,8] 0
pigjg[102,303,8] 0
pigjg[102,304,8] 0
pigjg[102,405,8] 0
pigjg[102,505,8] 0
pigjg[102,506,8] 1.9467729302962331e+00
pigjg[102,607,8] 0
pigjg[102,707,8] 0
pigjg[102,708,8] 0
pigjg[102,809,8] 0
pigjg[102,909,8] 0
pigjg[203,101,8] 0
pigjg[203,102,8] 0
pigjg[203,303,8] 0
pigjg[203,304,8] 0
pigjg[203,405,8] 2.7399003240697618e-06
pigjg[203,505,8] 0
pigjg[203,506,8] 0
pigjg[203,607,8] 0
pigjg[203,707,8] 0
pigjg[203,708,8] 0
pigjg[203,809,8] 0
pigjg[203,909,8] 0
pigjg[303,101,8] 0
pigjg[303,102,8] 0
pigjg[303,203,8] 3.7907945987854349e-08
pigjg[303,304,8] 0
pigjg[303,405,8] 0
pigjg[303,505,8] 0
pigjg[303,506,8] 0
pigjg[303,607,8] 0
pigjg[303,707,8] 0
pigjg[303,708,8] 0
pigjg[303,809,8] 0
pigjg[303,909,8] 0
pigjg[304,101,8] 0
pigjg[304,102,8] 0
pigjg[304,203,8] 0
pigjg[304,303,8] 6.9297115620833609e-06
pigjg[304,405,8] 0
pigjg[304,505,8] 0
pigjg[304,506,8] 0
pigjg[304,607,8] 0
pigjg[304,707,8] 0
pigjg[304,708,8] 0
pigjg[304,809,8] 0
pigjg[304,909,8] 0
pigjg[405,101,8] 0
pigjg[405,102,8] 0
pigjg[405,203,8] 0
pigjg[405,303,8] 0
pigjg[405,304,8] 0
pigjg[405,505,8] 8.0393546936438842e-01
pigjg[405,506,8] 0
pigjg[405,607,8] 0
pigjg[405,707,8] 0
pigjg[405,708,8] 0
pigjg[405,809,8] 0
pigjg[405,909,8] 0
pigjg[505,101,8] 0
pigjg[505,102,8] 0
pigjg[505,203,8] 0
pigjg[505,303,8] 0
pigjg[505,304,8] 0
pigjg[505,405,8] 0
pigjg[505,506,8] 0
pigjg[505,607,8] 0
pigjg[505,707,8] 0
pigjg[505,708,8] 0
pigjg[505,809,8] 0
pigjg[505,909,8] 2.6839695495537317e+00
pigjg[506,101,8] 0
pigjg[506,102,8] 0
pigjg[506,203,8] 0
pigjg[506,303,8] 0
pigjg[506,304,8] 0
pigjg[506,405,8] 0
pigjg[506,505,8] 0
pigjg[506,607,8] 0
pigjg[506,707,8] 0
pigjg[506,708,8] 1.2348343536416998e-05
pigjg[506,809,8] 0
pigjg[506,909,8] 0
pigjg[607,101,8] 0
pigjg[607,102,8] 0
pigjg[607,203,8] 0
pigjg[607,303,8] 0
pigjg[607,304,8] 4.2994506819115257e+00
pigjg[607,405,8] 0
pigjg[607,505,8] 0
pigjg[607,506,8] 0
pigjg[607,707,8] 0
pigjg[607,708,8] 0
pigjg[607,809,8] 0
pigjg[607,909,8] 0
pigjg[707,101,8] 0
pigjg[707,102,8] 0
pigjg[707,203,8] 0
pigjg[707,303,8] 0
pigjg[707,304,8] 0
pigjg[707,405,8] 0
pigjg[707,505,8] 0
pigjg[707,506,8] 0
pigjg[707,607,8] 0
pigjg[707,708,8] 0
pigjg[707,809,8] 1.00039072448945e-07
pigjg[707,909,8] 0
pigjg[708,101,8] 0
pigjg[708,102,8] 0
pigjg[708,203,8] 0
pigjg[708,303,8] 0
pigjg[708,304,8] 0
pigjg[708,405,8] 0
pigjg[708,505,8] 0
pigjg[708,506,8] 0
pigjg[708,607,8] 0
pigjg[708,707,8] 2.8492146415607636e-08
pigjg[708,809,8] 0
pigjg[708,909,8] 0
pigjg[809,101,8] 0
pigjg[809,102,8] 0
pigjg[809,203,8] 0
pigjg[809,303,8] 0
pigjg[809,304,8] 0
pigjg[809,405,8] 0
pigjg[809,505,8] 0
pigjg[809,506,8] 0
pigjg[809,607,8] 8.5330293248210036e-08
pigjg[809,707,8] 0
pigjg[809,708,8] 0
pigjg[809,909,8] 0
pigjg[909,101,8] 4.1207685061068853e+00
pigjg[909,102,8] 0
pigjg[909,203,8] 0
pigjg[909,303,8] 0
pigjg[909,304,8] 0
pigjg[909,405,8] 0
pigjg[909,505,8] 0
pigjg[909,506,8] 0
pigjg[909,607,8] 0
pigjg[909,707,8] 0
pigjg[909,708,8] 0
pigjg[909,809,8] 0
Rig[101,8,0] 4.1575277878648755e+01
Rig[101,8,1] 4.3403421252129876e-01
Rig[102,8,0] 4.1575277868410325e+01
Rig[102,8,1] 4.3403421796855157e-01
Rig[203,8,0] 4.3871389849792877e+01
Rig[203,8,1] 1.29495935314494
Rig[303,8,0] 4.0252026214233979e+01
Rig[303,8,1] 1.5760787323362013e+00
Rig[304,8,0] 4.0252026734874548e+01
Rig[304,8,1] 1.5760852087927333e+00
Rig[405,8,0] 4.3871392419663124e+01
Rig[405,8,1] 1.2949607575388444e+00
Rig[505,8,0] 4.3880108800144171e+01
Rig[505,8,1] 2.0988486167150389e+00
Rig[506,8,0] 3.9590442785253671e+01
Rig[506,8,1] 3.4069902558499159e+00
Rig[607,8,0] 4.4187495838344724e+01
Rig[607,8,1] 3.3073734681994
Rig[707,8,0] 3.9590435152988874e+01
Rig[707,8,1] 3.4069998969148068e+00
Rig[708,8,0] 3.9590435137066272e+01
Rig[708,8,1] 3.4069999337571635e+00
Rig[809,8,0] 4.4187495881059981e+01
Rig[809,8,1] 3.3073735596409239e+00
Rig[909,8,0] 4.5690388926522459e+01
Rig[909,8,1] 4.7416740209920993e+00
rhoig[101,8] 9.9999999905471526e-01
rhoig[102,8] 9.9999999518530513e-01
rhoig[203,8] 4.5885022448288737e-09
rhoig[303,8] 9.9999907987618641e-01
rhoig[304,8] 9.9998886925252251e-01
rhoig[405,8] 9.9999822279080952e-01
rhoig[505,8] 3.0523204529605152e-01
rhoig[506,8] 7.5776709733688108e-06
rhoig[607,8] 2.5829629990425929e-08
rhoig[707,8] 9.9999999941761075e-01
rhoig[708,8] 9.9999996025272964e-01
rhoig[809,8] 0.999999958737769
rhoig[909,8] 3.6330262953001125e-02
Lig[101,8,0] 4.1575277907531650e+01
Lig[101,8,1] 4.3403421290476341e-01
Lig[102,8,0] 4.0252022888120457e+01
Lig[102,8,1] 1.5760789874174810e+00
Lig[203,8,0] 4.3871392183493235e+01
Lig[203,8,1] 1.2949583045219151e+00
Lig[303,8,0] 4.3871389829378373e+01
Lig[303,8,1] 1.2949593577919187e+00
Lig[304,8,0] 4.0252026739596133e+01
Lig[304,8,1] 1.5760852164163515e+00
Lig[405,8,0] 4.3871392406488106e+01
Lig[405,8,1] 1.2949607503808214e+00
Lig[505,8,0] 4.5322038948424677e+01
Lig[505,8,1] 2.0831011153049555e+00
Lig[506,8,0] 3.9590442789180187e+01
Lig[506,8,1] 3.4069902508916536e+00
Lig[607,8,0] 4.4187495816018675e+01
Lig[607,8,1] 3.3073734922911839e+00
Lig[707,8,0] 4.4187495805589094e+01
Lig[707,8,1] 3.3073734998966908e+00
Lig[708,8,0] 3.9590435146196462e+01
Lig[708,8,1] 3.4069999084011990e+00
Lig[809,8,0] 4.4187495820941059e+01
Lig[809,8,1] 3.3073735097068742e+00
Lig[909,8,0] 4.0497455184712535e+01
Lig[909,8,1] 4.4113487896153121e+00
landaig[101,8] 9.9999999199497225e-01
landaig[102,8] 3.1378728504449782e-09
landaig[203,8] 1.3046288500628833e-06
landaig[303,8] 3.3645939367943356e-09
landaig[304,8] 0.999988855605142
landaig[405,8] 9.9999823187296144e-01
landaig[505,8] 1.5352405569046823e-08
landaig[506,8] 7.5815680382618211e-06
landaig[607,8] 6.1511791216162237e-09
landaig[707,8] 7.5065287319375784e-10
landaig[708,8] 9.9999998765109366e-01
landaig[809,8] 9.9999999318150534e-01
landaig[909,8] 8.1421362064032365e-01
minig[101,8] 0
minig[102,8] 0
minig[203,8] 1.3008050375128571e-06
minig[303,8] 0
minig[304,8] 0
minig[405,8] 9.0821519194150824e-09
minig[505,8] 0
minig[506,8] 3.8970648930103380e-09
minig[607,8] 0
minig[707,8] 0
minig[708,8] 2.7398364021991028e-08
minig[809,8] 3.52084259117251e-08
minig[909,8] 7.7788335845969792e-01
maxig[101,8] 7.8244331510543767e-09
maxig[102,8] 9.9999999204743228e-01
maxig[203,8] 0
maxig[303,8] 9.9999907651159248e-01
maxig[304,8] 1.3647380558978739e-08
maxig[405,8] 0
maxig[505,8] 3.0523202994364595e-01
maxig[506,8] 0
maxig[607,8] 1.9678450868809705e-08
maxig[707,8] 9.9999999943164242e-01
maxig[708,8] 0
maxig[809,8] 0
maxig[909,8] 0
entryig[101,8] 0
entryig[102,8] 0
entryig[203,8] 1
entryig[303,8] 0
entryig[304,8] 0
entryig[405,8] 1
entryig[505,8] 0
entryig[506,8] 1
entryig[607,8] 0
entryig[707,8] 0
entryig[708,8] 1
entryig[809,8] 1
entryig[909,8] 1
muig[101,8] 1
muig[102,8] 0
muig[203,8] 1
muig[303,8] 0
muig[304,8] 0
muig[405,8] 0
muig[505,8] 0
muig[506,8] 0
muig[607,8] 0
muig[707,8] 1
muig[708,8] 0
muig[809,8] 1
muig[909,8] 1
pig[101,8] 7.8244331510543767e-09
pig[102,8] 0
pig[203,8] 1.3008050375128571e-06
pig[303,8] 0
pig[304,8] 0
pig[405,8] 0
pig[505,8] 0
pig[506,8] 0
pig[607,8] 0
pig[707,8] 9.9999999943164242e-01
pig[708,8] 0
pig[809,8] 3.52084259117251e-08
pig[909,8] 7.7788335845969792e-01
alphaig[101,8] 7.8244331510543767e-09
alphaig[102,8] 9.9999999204743228e-01
alphaig[203,8] 1.3008050375128571e-06
alphaig[303,8] 9.9999907651159248e-01
alphaig[304,8] 1.3647380558978739e-08
alphaig[405,8] 9.0821519194150824e-09
alphaig[505,8] 3.0523202994364595e-01
alphaig[506,8] 3.8970648930103380e-09
alphaig[607,8] 1.9678450868809705e-08
alphaig[707,8] 9.9999999943164242e-01
alphaig[708,8] 2.7398364021991028e-08
alphaig[809,8] 3.52084259117251e-08
alphaig[909,8] 7.7788335845969792e-01
